sat
(model
(define-fun |main$tmp_guard0#3| () (_ BitVec 8) #b00000001)
(define-fun |goto_symex::&92;guard#1| () Bool true)
(define-fun |goto_symex::&92;guard#2| () Bool false)
(define-fun array_of.0 () (Array (_ BitVec 32) (_ BitVec 1)) ((as const (Array (_ BitVec 32) (_ BitVec 1))) #b0))
(define-fun |main::1::t2521!0@1| () (_ BitVec 32) #b00000000000000000000000000000000)
(define-fun |main::1::t2522!0@1| () (_ BitVec 32) #b00000000000000000000000000000000)
(define-fun |__CPROVER_next_thread_id#3| () (_ BitVec 32) #b00000000000000000000000000000001)
(define-fun |main::1::t2523!0@1| () (_ BitVec 32) #b00000000000000000000000000000000)
(define-fun |__CPROVER_next_thread_id#6| () (_ BitVec 32) #b00000000000000000000000000000010)
(define-fun |__unbuffered_cnt#2| () (_ BitVec 32) #b00000000000000000000000000000011)
(define-fun |x$w_buff0_used#2| () (_ BitVec 8) #b00000000)
(define-fun |x$r_buff0_thd0#2| () (_ BitVec 8) #b00000000)
(define-fun |x$w_buff0#2| () (_ BitVec 32) #b00000000000000000000000000000001)
(define-fun |x$w_buff1_used#2| () (_ BitVec 8) #b00000000)
(define-fun |x$r_buff1_thd0#2| () (_ BitVec 8) #b00000000)
(define-fun |x$w_buff1#2| () (_ BitVec 32) #b00000000000000000000000000000000)
(define-fun |x#2| () (_ BitVec 32) #b00000000000000000000000000000001)
(define-fun |x#4| () (_ BitVec 32) #b00000000000000000000000000000001)
(define-fun |x$w_buff0_used#6| () (_ BitVec 8) #b00000000)
(define-fun |x$w_buff1_used#6| () (_ BitVec 8) #b00000000)
(define-fun |x$r_buff0_thd0#8| () (_ BitVec 8) #b00000000)
(define-fun |x$r_buff1_thd0#7| () (_ BitVec 8) #b00000000)
(define-fun |y#2| () (_ BitVec 32) #b00000000000000000000000000000010)
(define-fun |z#2| () (_ BitVec 32) #b00000000000000000000000000000010)
(define-fun |__unbuffered_p0_EAX#2| () (_ BitVec 32) #b00000000000000000000000000000000)
(define-fun |main$tmp_guard1#2| () (_ BitVec 8) #b00000000)
(define-fun |main$tmp_guard1#3| () (_ BitVec 8) #b00000000)
(define-fun |main$tmp_guard1#6| () (_ BitVec 8) #b00000000)
(define-fun |pthread_create::1::this_thread_id!1@0#0| () (_ BitVec 32) #b00000000000000000000000000000000)
(define-fun |nondet_symex::nondet0| () Bool false)
(define-fun |nondet_symex::nondet1| () Bool true)
(define-fun |x#6| () (_ BitVec 32) #b00000000000000000000000000000000)
(define-fun |x$w_buff0_used#11| () (_ BitVec 8) #b00000001)
(define-fun |x$r_buff0_thd1#2| () (_ BitVec 8) #b00000000)
(define-fun |x$w_buff1_used#9| () (_ BitVec 8) #b00000000)
(define-fun |x$r_buff1_thd1#2| () (_ BitVec 8) #b00000000)
(define-fun |x$w_buff0#4| () (_ BitVec 32) #b00000000000000000000000000000001)
(define-fun |x$w_buff1#4| () (_ BitVec 32) #b00000000000000000000000000000000)
(define-fun |__unbuffered_cnt#4| () (_ BitVec 32) #b00000000000000000000000000000001)
(define-fun |nondet_symex::nondet2| () (_ BitVec 32) #b00000000000000000000000000000000)
(define-fun |__CPROVER_threads_exited#2| () (Array (_ BitVec 32) (_ BitVec 1)) (store ((as const (Array (_ BitVec 32) (_ BitVec 1))) #b0) #b00000000000000000000000000000000 #b1))
(define-fun |pthread_create::1::this_thread_id!2@0#0| () (_ BitVec 32) #b00000000000000000000000000000000)
(define-fun |x$w_buff0#7| () (_ BitVec 32) #b00000000000000000000000000000000)
(define-fun |x$w_buff0_used#14| () (_ BitVec 8) #b00000000)
(define-fun |x$r_buff0_thd0#11| () (_ BitVec 8) #b00000000)
(define-fun |x$r_buff1_thd0#9| () (_ BitVec 8) #b00000000)
(define-fun |x$r_buff1_thd0#10| () (_ BitVec 8) #b00000000)
(define-fun |x$r_buff0_thd1#5| () (_ BitVec 8) #b00000000)
(define-fun |x$r_buff1_thd1#5| () (_ BitVec 8) #b00000000)
(define-fun |x$r_buff1_thd1#6| () (_ BitVec 8) #b00000000)
(define-fun |x$r_buff0_thd2#2| () (_ BitVec 8) #b00000000)
(define-fun |x$r_buff1_thd2#2| () (_ BitVec 8) #b00000000)
(define-fun |x$r_buff1_thd2#3| () (_ BitVec 8) #b00000000)
(define-fun |x$r_buff0_thd3#2| () (_ BitVec 8) #b00000000)
(define-fun |x$r_buff1_thd3#2| () (_ BitVec 8) #b00000000)
(define-fun |x$r_buff1_thd3#3| () (_ BitVec 8) #b00000000)
(define-fun |x$r_buff0_thd2#4| () (_ BitVec 8) #b00000001)
(define-fun |y#4| () (_ BitVec 32) #b00000000000000000000000000000001)
(define-fun |y#5| () (_ BitVec 32) #b00000000000000000000000000000000)
(define-fun |x$w_buff0_used#17| () (_ BitVec 8) #b00000001)
(define-fun |x$r_buff0_thd2#6| () (_ BitVec 8) #b00000001)
(define-fun |x$w_buff0#10| () (_ BitVec 32) #b00000000000000000000000000000001)
(define-fun |x$w_buff1_used#13| () (_ BitVec 8) #b00000000)
(define-fun |x$r_buff1_thd2#5| () (_ BitVec 8) #b00000000)
(define-fun |x$w_buff1#8| () (_ BitVec 32) #b00000000000000000000000000000000)
(define-fun |x#10| () (_ BitVec 32) #b00000000000000000000000000000000)
(define-fun |x#12| () (_ BitVec 32) #b00000000000000000000000000000001)
(define-fun |x$w_buff0_used#21| () (_ BitVec 8) #b00000000)
(define-fun |x$w_buff1_used#17| () (_ BitVec 8) #b00000000)
(define-fun |x$r_buff0_thd2#12| () (_ BitVec 8) #b00000001)
(define-fun |x$r_buff1_thd2#10| () (_ BitVec 8) #b00000000)
(define-fun |__unbuffered_cnt#7| () (_ BitVec 32) #b00000000000000000000000000000000)
(define-fun |__unbuffered_cnt#9| () (_ BitVec 32) #b00000000000000000000000000000001)
(define-fun |nondet_symex::nondet3| () (_ BitVec 32) #b00000000000000000000000000000000)
(define-fun |__CPROVER_threads_exited#4| () (Array (_ BitVec 32) (_ BitVec 1)) (store ((as const (Array (_ BitVec 32) (_ BitVec 1))) #b0) #b00000000000000000000000000000000 #b1))
(define-fun |pthread_create::1::this_thread_id!3@0#0| () (_ BitVec 32) #b00000000000000000000000000000000)
(define-fun |x$w_buff0_used#26| () (_ BitVec 8) #b00000000)
(define-fun |x$r_buff0_thd3#4| () (_ BitVec 8) #b00000000)
(define-fun |x$w_buff0#12| () (_ BitVec 32) #b00000000000000000000000000000001)
(define-fun |x$w_buff1_used#20| () (_ BitVec 8) #b00000000)
(define-fun |x$r_buff1_thd3#5| () (_ BitVec 8) #b00000000)
(define-fun |x$w_buff1#10| () (_ BitVec 32) #b00000000000000000000000000000000)
(define-fun |x#14| () (_ BitVec 32) #b00000000000000000000000000000001)
(define-fun |__unbuffered_cnt#11| () (_ BitVec 32) #b00000000000000000000000000000010)
(define-fun |nondet_symex::nondet4| () (_ BitVec 32) #b00000000000000000000000000000000)
(define-fun |__CPROVER_threads_exited#6| () (Array (_ BitVec 32) (_ BitVec 1)) ((as const (Array (_ BitVec 32) (_ BitVec 1))) #b0))
(define-fun |main::1::t2521!0@1#1| () (_ BitVec 32) #b00000000000000000000000000000000)
(define-fun |pthread_create::1::this_thread_id!0@1#1| () (_ BitVec 32) #b00000000000000000000000000000000)
(define-fun |main::1::t2522!0@1#1| () (_ BitVec 32) #b00000000000000000000000000000000)
(define-fun |pthread_create::1::this_thread_id!0@2#1| () (_ BitVec 32) #b00000000000000000000000000000000)
(define-fun |main::1::t2523!0@1#1| () (_ BitVec 32) #b00000000000000000000000000000000)
(define-fun |pthread_create::1::this_thread_id!0@3#1| () (_ BitVec 32) #b00000000000000000000000000000000)
(define-fun |P0::$tmp::return_value___VERIFIER_nondet_pointer$1!1@1#1| () (_ BitVec 32) #b00000000000000000000000000000000)
(define-fun |P1::$tmp::return_value___VERIFIER_nondet_pointer$1!2@1#1| () (_ BitVec 32) #b00000000000000000000000000000000)
(define-fun |P2::$tmp::return_value___VERIFIER_nondet_pointer$1!3@1#1| () (_ BitVec 32) #b00000000000000000000000000000000)
(define-fun |memory_model::choice_rf_1_22_0_10_T_0| () Bool false)
(define-fun |__CPROVER_threads_exited#1$wclk$8| () (_ BitVec 8) #b00001110)
(define-fun |__CPROVER_threads_exited#2$rclk$8| () (_ BitVec 8) #b11011110)
(define-fun |memory_model::choice_rf_1_22_2_36_T_1| () Bool false)
(define-fun |__CPROVER_threads_exited#5$wclk$8| () (_ BitVec 8) #b11111110)
(define-fun |memory_model::choice_rf_1_22_3_17_T_2| () Bool true)
(define-fun |__CPROVER_threads_exited#7$wclk$8| () (_ BitVec 8) #b11000001)
(define-fun |memory_model::choice_rf_2_35_0_10_T_3| () Bool false)
(define-fun |__CPROVER_threads_exited#4$rclk$8| () (_ BitVec 8) #b11101110)
(define-fun |memory_model::choice_rf_2_35_1_23_T_4| () Bool false)
(define-fun |__CPROVER_threads_exited#3$wclk$8| () (_ BitVec 8) #b11111111)
(define-fun |memory_model::choice_rf_2_35_3_17_T_5| () Bool true)
(define-fun |memory_model::choice_rf_3_16_0_10_T_6| () Bool true)
(define-fun |__CPROVER_threads_exited#6$rclk$8| () (_ BitVec 8) #b10111101)
(define-fun |memory_model::choice_rf_3_16_1_23_T_7| () Bool false)
(define-fun |memory_model::choice_rf_3_16_2_36_T_8| () Bool false)
(define-fun |memory_model::choice_rf_0_41_0_8_T_9| () Bool false)
(define-fun |memory_model::choice_rf_0_41_0_37_T_10| () Bool true)
(define-fun |memory_model::choice_rf_0_46_0_8_T_11| () Bool false)
(define-fun |memory_model::choice_rf_0_46_0_37_T_12| () Bool false)
(define-fun |memory_model::choice_rf_0_46_0_42_T_13| () Bool true)
(define-fun |memory_model::choice_rf_0_54_0_17_F_14| () Bool false)
(define-fun |memory_model::choice_rf_0_54_1_15_F_15| () Bool false)
(define-fun |x#9$wclk$8| () (_ BitVec 8) #b10101111)
(define-fun |x#2$rclk$8| () (_ BitVec 8) #b11111100)
(define-fun |memory_model::choice_rf_0_54_2_32_F_16| () Bool false)
(define-fun |x#13$wclk$8| () (_ BitVec 8) #b10110011)
(define-fun |memory_model::choice_rf_0_54_3_13_F_17| () Bool true)
(define-fun |x#16$wclk$8| () (_ BitVec 8) #b10111011)
(define-fun |memory_model::choice_rf_1_7_0_17_F_18| () Bool true)
(define-fun |x#1$wclk$8| () (_ BitVec 8) #b00010110)
(define-fun |x#6$rclk$8| () (_ BitVec 8) #b10101111)
(define-fun |memory_model::choice_rf_1_7_0_64_F_19| () Bool false)
(define-fun |x#5$wclk$8| () (_ BitVec 8) #b11111100)
(define-fun |memory_model::choice_rf_1_7_2_32_F_20| () Bool false)
(define-fun |memory_model::choice_rf_1_7_3_13_F_21| () Bool false)
(define-fun |memory_model::choice_rf_2_22_0_17_F_22| () Bool false)
(define-fun |x#10$rclk$8| () (_ BitVec 8) #b10110011)
(define-fun |memory_model::choice_rf_2_22_0_64_F_23| () Bool false)
(define-fun |memory_model::choice_rf_2_22_1_15_F_24| () Bool true)
(define-fun |memory_model::choice_rf_2_22_3_13_F_25| () Bool false)
(define-fun |memory_model::choice_rf_3_3_0_17_F_26| () Bool false)
(define-fun |x#14$rclk$8| () (_ BitVec 8) #b10111011)
(define-fun |memory_model::choice_rf_3_3_0_64_F_27| () Bool false)
(define-fun |memory_model::choice_rf_3_3_1_15_F_28| () Bool false)
(define-fun |memory_model::choice_rf_3_3_2_32_F_29| () Bool true)
(define-fun |memory_model::choice_rf_0_50_0_11_F_30| () Bool false)
(define-fun |memory_model::choice_rf_0_50_1_21_F_31| () Bool false)
(define-fun |__unbuffered_cnt#6$wclk$8| () (_ BitVec 8) #b10111001)
(define-fun |__unbuffered_cnt#2$rclk$8| () (_ BitVec 8) #b10111101)
(define-fun |memory_model::choice_rf_0_50_2_34_F_32| () Bool false)
(define-fun |__unbuffered_cnt#10$wclk$8| () (_ BitVec 8) #b10111000)
(define-fun |memory_model::choice_rf_0_50_3_15_F_33| () Bool true)
(define-fun |__unbuffered_cnt#13$wclk$8| () (_ BitVec 8) #b10111100)
(define-fun |memory_model::choice_rf_1_20_0_11_F_34| () Bool false)
(define-fun |__unbuffered_cnt#1$wclk$8| () (_ BitVec 8) #b00001111)
(define-fun |__unbuffered_cnt#4$rclk$8| () (_ BitVec 8) #b10111001)
(define-fun |memory_model::choice_rf_1_20_2_34_F_35| () Bool true)
(define-fun |memory_model::choice_rf_1_20_3_15_F_36| () Bool false)
(define-fun |memory_model::choice_rf_2_33_0_11_F_37| () Bool true)
(define-fun |__unbuffered_cnt#7$rclk$8| () (_ BitVec 8) #b10111000)
(define-fun |memory_model::choice_rf_2_33_1_21_F_38| () Bool false)
(define-fun |memory_model::choice_rf_2_33_3_15_F_39| () Bool false)
(define-fun |memory_model::choice_rf_3_14_0_11_F_40| () Bool false)
(define-fun |__unbuffered_cnt#11$rclk$8| () (_ BitVec 8) #b10111100)
(define-fun |memory_model::choice_rf_3_14_1_21_F_41| () Bool true)
(define-fun |memory_model::choice_rf_3_14_2_34_F_42| () Bool false)
(define-fun |memory_model::choice_rf_0_66_0_12_F_43| () Bool false)
(define-fun |memory_model::choice_rf_0_66_1_8_F_44| () Bool true)
(define-fun |__unbuffered_p0_EAX#4$wclk$8| () (_ BitVec 8) #b10101111)
(define-fun |__unbuffered_p0_EAX#2$rclk$8| () (_ BitVec 8) #b11111101)
(define-fun |memory_model::choice_rf_0_52_0_13_F_45| () Bool false)
(define-fun |memory_model::choice_rf_0_52_0_51_F_46| () Bool true)
(define-fun |memory_model::choice_rf_0_65_0_14_F_47| () Bool false)
(define-fun |main$tmp_guard1#5| () (_ BitVec 8) #b00000000)
(define-fun |memory_model::choice_rf_0_70_0_14_F_48| () Bool false)
(define-fun |memory_model::choice_rf_0_70_0_69_F_49| () Bool true)
(define-fun |memory_model::choice_rf_0_71_0_14_F_50| () Bool false)
(define-fun |memory_model::choice_rf_0_71_0_69_F_51| () Bool true)
(define-fun |memory_model::choice_rf_0_58_0_20_F_52| () Bool true)
(define-fun |memory_model::choice_rf_2_6_0_20_F_53| () Bool true)
(define-fun |x$r_buff0_thd0#1$wclk$8| () (_ BitVec 8) #b00110001)
(define-fun |x$r_buff0_thd0#11$rclk$8| () (_ BitVec 8) #b01100001)
(define-fun |memory_model::choice_rf_2_6_0_61_F_54| () Bool false)
(define-fun |x$r_buff0_thd0#10$wclk$8| () (_ BitVec 8) #b11111100)
(define-fun |memory_model::choice_rf_1_4_0_21_F_55| () Bool true)
(define-fun |x$r_buff0_thd1#1$wclk$8| () (_ BitVec 8) #b00110010)
(define-fun |x$r_buff0_thd1#2$rclk$8| () (_ BitVec 8) #b10101111)
(define-fun |memory_model::choice_rf_2_3_0_21_F_56| () Bool true)
(define-fun |x$r_buff0_thd1#5$rclk$8| () (_ BitVec 8) #b01100001)
(define-fun |memory_model::choice_rf_2_3_1_10_F_57| () Bool false)
(define-fun |x$r_buff0_thd1#4$wclk$8| () (_ BitVec 8) #b10101111)
(define-fun |memory_model::choice_rf_2_1_0_22_F_58| () Bool true)
(define-fun |x$r_buff0_thd2#1$wclk$8| () (_ BitVec 8) #b00110011)
(define-fun |x$r_buff0_thd2#2$rclk$8| () (_ BitVec 8) #b01100001)
(define-fun |memory_model::choice_rf_2_26_0_22_F_59| () Bool false)
(define-fun |x$r_buff0_thd2#6$rclk$8| () (_ BitVec 8) #b10110011)
(define-fun |memory_model::choice_rf_2_26_2_10_F_60| () Bool true)
(define-fun |memory_model::choice_rf_2_4_0_23_F_61| () Bool true)
(define-fun |x$r_buff0_thd3#1$wclk$8| () (_ BitVec 8) #b00110100)
(define-fun |x$r_buff0_thd3#2$rclk$8| () (_ BitVec 8) #b01100001)
(define-fun |memory_model::choice_rf_2_4_3_9_F_62| () Bool false)
(define-fun |x$r_buff0_thd3#6$wclk$8| () (_ BitVec 8) #b10111011)
(define-fun |memory_model::choice_rf_3_6_0_23_F_63| () Bool true)
(define-fun |x$r_buff0_thd3#4$rclk$8| () (_ BitVec 8) #b10111011)
(define-fun |memory_model::choice_rf_0_57_0_24_F_64| () Bool false)
(define-fun |memory_model::choice_rf_0_57_2_13_F_65| () Bool true)
(define-fun |x$r_buff1_thd0#11$wclk$8| () (_ BitVec 8) #b01100001)
(define-fun |x$r_buff1_thd0#2$rclk$8| () (_ BitVec 8) #b11111100)
(define-fun |memory_model::choice_rf_2_5_0_24_F_66| () Bool false)
(define-fun |x$r_buff1_thd0#1$wclk$8| () (_ BitVec 8) #b00110101)
(define-fun |x$r_buff1_thd0#10$rclk$8| () (_ BitVec 8) #b01100001)
(define-fun |memory_model::choice_rf_2_5_0_60_F_67| () Bool false)
(define-fun |x$r_buff1_thd0#8$wclk$8| () (_ BitVec 8) #b11111100)
(define-fun |memory_model::choice_rf_1_3_0_25_F_68| () Bool false)
(define-fun |x$r_buff1_thd1#1$wclk$8| () (_ BitVec 8) #b00110110)
(define-fun |x$r_buff1_thd1#2$rclk$8| () (_ BitVec 8) #b10101111)
(define-fun |memory_model::choice_rf_1_3_2_12_F_69| () Bool true)
(define-fun |x$r_buff1_thd1#7$wclk$8| () (_ BitVec 8) #b01100001)
(define-fun |memory_model::choice_rf_2_2_0_25_F_70| () Bool false)
(define-fun |x$r_buff1_thd1#6$rclk$8| () (_ BitVec 8) #b01100001)
(define-fun |memory_model::choice_rf_2_2_1_9_F_71| () Bool false)
(define-fun |x$r_buff1_thd1#4$wclk$8| () (_ BitVec 8) #b10101111)
(define-fun |memory_model::choice_rf_2_0_0_26_F_72| () Bool false)
(define-fun |x$r_buff1_thd2#1$wclk$8| () (_ BitVec 8) #b00111010)
(define-fun |x$r_buff1_thd2#3$rclk$8| () (_ BitVec 8) #b01100001)
(define-fun |memory_model::choice_rf_2_25_0_26_F_73| () Bool false)
(define-fun |x$r_buff1_thd2#5$rclk$8| () (_ BitVec 8) #b10110011)
(define-fun |memory_model::choice_rf_2_25_2_11_F_74| () Bool true)
(define-fun |memory_model::choice_rf_2_7_0_27_F_75| () Bool false)
(define-fun |x$r_buff1_thd3#1$wclk$8| () (_ BitVec 8) #b00111011)
(define-fun |x$r_buff1_thd3#3$rclk$8| () (_ BitVec 8) #b01100001)
(define-fun |memory_model::choice_rf_2_7_3_10_F_76| () Bool false)
(define-fun |x$r_buff1_thd3#7$wclk$8| () (_ BitVec 8) #b10111011)
(define-fun |memory_model::choice_rf_3_7_0_27_F_77| () Bool false)
(define-fun |x$r_buff1_thd3#5$rclk$8| () (_ BitVec 8) #b10111011)
(define-fun |memory_model::choice_rf_3_7_2_14_F_78| () Bool true)
(define-fun |x$r_buff1_thd3#4$wclk$8| () (_ BitVec 8) #b01100001)
(define-fun |memory_model::choice_rf_0_56_0_30_F_79| () Bool false)
(define-fun |memory_model::choice_rf_0_56_1_13_F_80| () Bool true)
(define-fun |x$w_buff0#6$wclk$8| () (_ BitVec 8) #b10101111)
(define-fun |x$w_buff0#2$rclk$8| () (_ BitVec 8) #b11111100)
(define-fun |memory_model::choice_rf_0_56_2_17_F_81| () Bool false)
(define-fun |x$w_buff0#9$wclk$8| () (_ BitVec 8) #b01100001)
(define-fun |memory_model::choice_rf_1_2_0_30_F_82| () Bool false)
(define-fun |x$w_buff0#1$wclk$8| () (_ BitVec 8) #b01000001)
(define-fun |x$w_buff0#4$rclk$8| () (_ BitVec 8) #b10101111)
(define-fun |memory_model::choice_rf_1_2_2_17_F_83| () Bool true)
(define-fun |memory_model::choice_rf_2_9_0_30_F_84| () Bool true)
(define-fun |x$w_buff0#7$rclk$8| () (_ BitVec 8) #b01100001)
(define-fun |memory_model::choice_rf_2_9_1_13_F_85| () Bool false)
(define-fun |memory_model::choice_rf_2_24_0_30_F_86| () Bool false)
(define-fun |x$w_buff0#10$rclk$8| () (_ BitVec 8) #b10110011)
(define-fun |memory_model::choice_rf_2_24_1_13_F_87| () Bool true)
(define-fun |memory_model::choice_rf_2_24_2_17_F_88| () Bool false)
(define-fun |memory_model::choice_rf_3_5_0_30_F_89| () Bool false)
(define-fun |x$w_buff0#12$rclk$8| () (_ BitVec 8) #b10111011)
(define-fun |memory_model::choice_rf_3_5_1_13_F_90| () Bool true)
(define-fun |memory_model::choice_rf_3_5_2_17_F_91| () Bool false)
(define-fun |memory_model::choice_rf_0_59_0_31_F_92| () Bool false)
(define-fun |memory_model::choice_rf_0_59_1_11_F_93| () Bool false)
(define-fun |x$w_buff0_used#13$wclk$8| () (_ BitVec 8) #b10101111)
(define-fun |x$w_buff0_used#2$rclk$8| () (_ BitVec 8) #b11111100)
(define-fun |memory_model::choice_rf_0_59_2_15_F_94| () Bool false)
(define-fun |x$w_buff0_used#16$wclk$8| () (_ BitVec 8) #b01100001)
(define-fun |memory_model::choice_rf_0_59_2_30_F_95| () Bool false)
(define-fun |x$w_buff0_used#25$wclk$8| () (_ BitVec 8) #b10110011)
(define-fun |memory_model::choice_rf_0_59_3_11_F_96| () Bool true)
(define-fun |x$w_buff0_used#28$wclk$8| () (_ BitVec 8) #b10111011)
(define-fun |memory_model::choice_rf_1_5_0_31_F_97| () Bool false)
(define-fun |x$w_buff0_used#1$wclk$8| () (_ BitVec 8) #b01000010)
(define-fun |x$w_buff0_used#11$rclk$8| () (_ BitVec 8) #b10101111)
(define-fun |memory_model::choice_rf_1_5_0_62_F_98| () Bool false)
(define-fun |x$w_buff0_used#10$wclk$8| () (_ BitVec 8) #b11111100)
(define-fun |memory_model::choice_rf_1_5_2_15_F_99| () Bool true)
(define-fun |memory_model::choice_rf_1_5_2_30_F_100| () Bool false)
(define-fun |memory_model::choice_rf_1_5_3_11_F_101| () Bool false)
(define-fun |memory_model::choice_rf_2_8_0_31_F_102| () Bool true)
(define-fun |x$w_buff0_used#14$rclk$8| () (_ BitVec 8) #b01100001)
(define-fun |memory_model::choice_rf_2_8_0_62_F_103| () Bool false)
(define-fun |memory_model::choice_rf_2_8_1_11_F_104| () Bool false)
(define-fun |memory_model::choice_rf_2_8_3_11_F_105| () Bool false)
(define-fun |memory_model::choice_rf_2_27_0_31_F_106| () Bool false)
(define-fun |x$w_buff0_used#17$rclk$8| () (_ BitVec 8) #b10110011)
(define-fun |memory_model::choice_rf_2_27_0_62_F_107| () Bool false)
(define-fun |memory_model::choice_rf_2_27_1_11_F_108| () Bool true)
(define-fun |memory_model::choice_rf_2_27_2_15_F_109| () Bool false)
(define-fun |memory_model::choice_rf_2_27_3_11_F_110| () Bool false)
(define-fun |memory_model::choice_rf_3_8_0_31_F_111| () Bool false)
(define-fun |x$w_buff0_used#26$rclk$8| () (_ BitVec 8) #b10111011)
(define-fun |memory_model::choice_rf_3_8_0_62_F_112| () Bool false)
(define-fun |memory_model::choice_rf_3_8_1_11_F_113| () Bool false)
(define-fun |memory_model::choice_rf_3_8_2_15_F_114| () Bool false)
(define-fun |memory_model::choice_rf_3_8_2_30_F_115| () Bool true)
(define-fun |memory_model::choice_rf_0_53_0_32_F_116| () Bool false)
(define-fun |memory_model::choice_rf_0_53_1_12_F_117| () Bool true)
(define-fun |x$w_buff1#6$wclk$8| () (_ BitVec 8) #b10101111)
(define-fun |x$w_buff1#2$rclk$8| () (_ BitVec 8) #b11111100)
(define-fun |memory_model::choice_rf_0_53_2_18_F_118| () Bool false)
(define-fun |x$w_buff1#7$wclk$8| () (_ BitVec 8) #b01100001)
(define-fun |memory_model::choice_rf_1_1_0_32_F_119| () Bool false)
(define-fun |x$w_buff1#1$wclk$8| () (_ BitVec 8) #b01000011)
(define-fun |x$w_buff1#4$rclk$8| () (_ BitVec 8) #b10101111)
(define-fun |memory_model::choice_rf_1_1_2_18_F_120| () Bool true)
(define-fun |memory_model::choice_rf_2_21_0_32_F_121| () Bool false)
(define-fun |x$w_buff1#8$rclk$8| () (_ BitVec 8) #b10110011)
(define-fun |memory_model::choice_rf_2_21_1_12_F_122| () Bool true)
(define-fun |memory_model::choice_rf_2_21_2_18_F_123| () Bool false)
(define-fun |memory_model::choice_rf_3_2_0_32_F_124| () Bool false)
(define-fun |x$w_buff1#10$rclk$8| () (_ BitVec 8) #b10111011)
(define-fun |memory_model::choice_rf_3_2_1_12_F_125| () Bool true)
(define-fun |memory_model::choice_rf_3_2_2_18_F_126| () Bool false)
(define-fun |memory_model::choice_rf_0_55_0_33_F_127| () Bool false)
(define-fun |memory_model::choice_rf_0_55_1_14_F_128| () Bool false)
(define-fun |x$w_buff1_used#11$wclk$8| () (_ BitVec 8) #b10101111)
(define-fun |x$w_buff1_used#2$rclk$8| () (_ BitVec 8) #b11111100)
(define-fun |memory_model::choice_rf_0_55_2_16_F_129| () Bool false)
(define-fun |x$w_buff1_used#12$wclk$8| () (_ BitVec 8) #b01100001)
(define-fun |memory_model::choice_rf_0_55_2_31_F_130| () Bool false)
(define-fun |x$w_buff1_used#19$wclk$8| () (_ BitVec 8) #b10110011)
(define-fun |memory_model::choice_rf_0_55_3_12_F_131| () Bool true)
(define-fun |x$w_buff1_used#22$wclk$8| () (_ BitVec 8) #b10111011)
(define-fun |memory_model::choice_rf_1_6_0_33_F_132| () Bool false)
(define-fun |x$w_buff1_used#1$wclk$8| () (_ BitVec 8) #b01000100)
(define-fun |x$w_buff1_used#9$rclk$8| () (_ BitVec 8) #b10101111)
(define-fun |memory_model::choice_rf_1_6_0_63_F_133| () Bool false)
(define-fun |x$w_buff1_used#8$wclk$8| () (_ BitVec 8) #b11111100)
(define-fun |memory_model::choice_rf_1_6_2_16_F_134| () Bool true)
(define-fun |memory_model::choice_rf_1_6_2_31_F_135| () Bool false)
(define-fun |memory_model::choice_rf_1_6_3_12_F_136| () Bool false)
(define-fun |memory_model::choice_rf_2_23_0_33_F_137| () Bool false)
(define-fun |x$w_buff1_used#13$rclk$8| () (_ BitVec 8) #b10110011)
(define-fun |memory_model::choice_rf_2_23_0_63_F_138| () Bool false)
(define-fun |memory_model::choice_rf_2_23_1_14_F_139| () Bool true)
(define-fun |memory_model::choice_rf_2_23_2_16_F_140| () Bool false)
(define-fun |memory_model::choice_rf_2_23_3_12_F_141| () Bool false)
(define-fun |memory_model::choice_rf_3_4_0_33_F_142| () Bool false)
(define-fun |x$w_buff1_used#20$rclk$8| () (_ BitVec 8) #b10111011)
(define-fun |memory_model::choice_rf_3_4_0_63_F_143| () Bool false)
(define-fun |memory_model::choice_rf_3_4_1_14_F_144| () Bool false)
(define-fun |memory_model::choice_rf_3_4_2_16_F_145| () Bool false)
(define-fun |memory_model::choice_rf_3_4_2_31_F_146| () Bool true)
(define-fun |memory_model::choice_rf_0_68_0_34_F_147| () Bool false)
(define-fun |memory_model::choice_rf_0_68_2_20_F_148| () Bool false)
(define-fun |y#6$wclk$8| () (_ BitVec 8) #b01100100)
(define-fun |y#2$rclk$8| () (_ BitVec 8) #b11111101)
(define-fun |memory_model::choice_rf_0_68_3_0_F_149| () Bool true)
(define-fun |y#7$wclk$8| () (_ BitVec 8) #b10001101)
(define-fun |memory_model::choice_rf_2_19_0_34_F_150| () Bool false)
(define-fun |y#1$wclk$8| () (_ BitVec 8) #b01001010)
(define-fun |y#5$rclk$8| () (_ BitVec 8) #b01100100)
(define-fun |memory_model::choice_rf_2_19_3_0_F_151| () Bool false)
(define-fun |memory_model::choice_rf_0_67_0_35_F_152| () Bool false)
(define-fun |memory_model::choice_rf_0_67_1_0_F_153| () Bool true)
(define-fun |z#4$wclk$8| () (_ BitVec 8) #b10101110)
(define-fun |z#2$rclk$8| () (_ BitVec 8) #b11111101)
(define-fun |memory_model::choice_rf_0_67_3_1_F_154| () Bool false)
(define-fun |z#5$wclk$8| () (_ BitVec 8) #b10011011)
(define-fun |memory_model::choice_ws-ext_0_10_1_23_T_155| () Bool true)
(define-fun |memory_model::choice_ws-ext_0_10_2_36_T_156| () Bool true)
(define-fun |memory_model::choice_ws-ext_0_10_3_17_T_157| () Bool true)
(define-fun |memory_model::choice_ws-ext_1_23_2_36_T_158| () Bool false)
(define-fun |memory_model::choice_ws-ext_1_23_3_17_T_159| () Bool false)
(define-fun |memory_model::choice_ws-ext_2_36_3_17_T_160| () Bool false)
(define-fun |memory_model::choice_ws-ext_0_17_1_15_F_161| () Bool true)
(define-fun |memory_model::choice_ws-ext_0_17_2_32_F_162| () Bool true)
(define-fun |memory_model::choice_ws-ext_0_17_3_13_F_163| () Bool true)
(define-fun |memory_model::choice_ws-ext_0_64_1_15_F_164| () Bool false)
(define-fun |memory_model::choice_ws-ext_0_64_2_32_F_165| () Bool false)
(define-fun |memory_model::choice_ws-ext_0_64_3_13_F_166| () Bool false)
(define-fun |memory_model::choice_ws-ext_1_15_2_32_F_167| () Bool true)
(define-fun |memory_model::choice_ws-ext_1_15_3_13_F_168| () Bool true)
(define-fun |memory_model::choice_ws-ext_2_32_3_13_F_169| () Bool true)
(define-fun |memory_model::choice_ws-ext_0_11_1_21_F_170| () Bool true)
(define-fun |memory_model::choice_ws-ext_0_11_2_34_F_171| () Bool true)
(define-fun |memory_model::choice_ws-ext_0_11_3_15_F_172| () Bool true)
(define-fun |memory_model::choice_ws-ext_1_21_2_34_F_173| () Bool false)
(define-fun |memory_model::choice_ws-ext_1_21_3_15_F_174| () Bool true)
(define-fun |memory_model::choice_ws-ext_2_34_3_15_F_175| () Bool true)
(define-fun |__unbuffered_p0_EAX#1$wclk$8| () (_ BitVec 8) #b00010000)
(define-fun |memory_model::choice_ws-ext_0_12_1_8_F_176| () Bool true)
(define-fun |x$flush_delayed#1$wclk$8| () (_ BitVec 8) #b00010111)
(define-fun |x$flush_delayed#3$wclk$8| () (_ BitVec 8) #b10101111)
(define-fun |memory_model::choice_ws-ext_0_18_1_17_F_177| () Bool true)
(define-fun |x$mem_tmp#1$wclk$8| () (_ BitVec 8) #b00110000)
(define-fun |x$mem_tmp#2$wclk$8| () (_ BitVec 8) #b10101111)
(define-fun |memory_model::choice_ws-ext_0_19_1_16_F_178| () Bool true)
(define-fun |memory_model::choice_ws-ext_0_21_1_10_F_179| () Bool true)
(define-fun |x$r_buff0_thd2#5$wclk$8| () (_ BitVec 8) #b01100001)
(define-fun |memory_model::choice_ws-ext_0_22_2_10_F_180| () Bool true)
(define-fun |x$r_buff0_thd2#14$wclk$8| () (_ BitVec 8) #b10110011)
(define-fun |memory_model::choice_ws-ext_0_22_2_29_F_181| () Bool true)
(define-fun |memory_model::choice_ws-ext_0_23_3_9_F_182| () Bool true)
(define-fun |memory_model::choice_ws-ext_0_24_2_13_F_183| () Bool true)
(define-fun |memory_model::choice_ws-ext_0_60_2_13_F_184| () Bool false)
(define-fun |memory_model::choice_ws-ext_0_25_1_9_F_185| () Bool true)
(define-fun |memory_model::choice_ws-ext_0_25_2_12_F_186| () Bool true)
(define-fun |memory_model::choice_ws-ext_1_9_2_12_F_187| () Bool false)
(define-fun |x$r_buff1_thd2#4$wclk$8| () (_ BitVec 8) #b01100001)
(define-fun |memory_model::choice_ws-ext_0_26_2_11_F_188| () Bool true)
(define-fun |x$r_buff1_thd2#11$wclk$8| () (_ BitVec 8) #b10110011)
(define-fun |memory_model::choice_ws-ext_0_26_2_28_F_189| () Bool true)
(define-fun |memory_model::choice_ws-ext_0_27_2_14_F_190| () Bool true)
(define-fun |memory_model::choice_ws-ext_0_27_3_10_F_191| () Bool true)
(define-fun |memory_model::choice_ws-ext_2_14_3_10_F_192| () Bool true)
(define-fun |memory_model::choice_ws-ext_0_30_1_13_F_193| () Bool true)
(define-fun |memory_model::choice_ws-ext_0_30_2_17_F_194| () Bool true)
(define-fun |memory_model::choice_ws-ext_1_13_2_17_F_195| () Bool false)
(define-fun |memory_model::choice_ws-ext_0_31_1_11_F_196| () Bool true)
(define-fun |memory_model::choice_ws-ext_0_31_2_15_F_197| () Bool true)
(define-fun |memory_model::choice_ws-ext_0_31_2_30_F_198| () Bool true)
(define-fun |memory_model::choice_ws-ext_0_31_3_11_F_199| () Bool true)
(define-fun |memory_model::choice_ws-ext_0_62_1_11_F_200| () Bool false)
(define-fun |memory_model::choice_ws-ext_0_62_2_15_F_201| () Bool false)
(define-fun |memory_model::choice_ws-ext_0_62_2_30_F_202| () Bool false)
(define-fun |memory_model::choice_ws-ext_0_62_3_11_F_203| () Bool false)
(define-fun |memory_model::choice_ws-ext_1_11_2_15_F_204| () Bool false)
(define-fun |memory_model::choice_ws-ext_1_11_2_30_F_205| () Bool true)
(define-fun |memory_model::choice_ws-ext_1_11_3_11_F_206| () Bool true)
(define-fun |memory_model::choice_ws-ext_2_15_3_11_F_207| () Bool true)
(define-fun |memory_model::choice_ws-ext_2_30_3_11_F_208| () Bool true)
(define-fun |memory_model::choice_ws-ext_0_32_1_12_F_209| () Bool true)
(define-fun |memory_model::choice_ws-ext_0_32_2_18_F_210| () Bool true)
(define-fun |memory_model::choice_ws-ext_1_12_2_18_F_211| () Bool false)
(define-fun |memory_model::choice_ws-ext_0_33_1_14_F_212| () Bool true)
(define-fun |memory_model::choice_ws-ext_0_33_2_16_F_213| () Bool true)
(define-fun |memory_model::choice_ws-ext_0_33_2_31_F_214| () Bool true)
(define-fun |memory_model::choice_ws-ext_0_33_3_12_F_215| () Bool true)
(define-fun |memory_model::choice_ws-ext_0_63_1_14_F_216| () Bool false)
(define-fun |memory_model::choice_ws-ext_0_63_2_16_F_217| () Bool false)
(define-fun |memory_model::choice_ws-ext_0_63_2_31_F_218| () Bool false)
(define-fun |memory_model::choice_ws-ext_0_63_3_12_F_219| () Bool false)
(define-fun |memory_model::choice_ws-ext_1_14_2_16_F_220| () Bool false)
(define-fun |memory_model::choice_ws-ext_1_14_2_31_F_221| () Bool true)
(define-fun |memory_model::choice_ws-ext_1_14_3_12_F_222| () Bool true)
(define-fun |memory_model::choice_ws-ext_2_16_3_12_F_223| () Bool true)
(define-fun |memory_model::choice_ws-ext_2_31_3_12_F_224| () Bool true)
(define-fun |memory_model::choice_ws-ext_0_34_2_20_F_225| () Bool true)
(define-fun |memory_model::choice_ws-ext_0_34_3_0_F_226| () Bool true)
(define-fun |memory_model::choice_ws-ext_2_20_3_0_F_227| () Bool true)
(define-fun |z#1$wclk$8| () (_ BitVec 8) #b01001011)
(define-fun |memory_model::choice_ws-ext_0_35_1_0_F_228| () Bool true)
(define-fun |memory_model::choice_ws-ext_0_35_3_1_F_229| () Bool true)
(define-fun |memory_model::choice_ws-ext_1_0_3_1_F_230| () Bool false)
(define-fun |weak$$choice0#1$wclk$8| () (_ BitVec 8) #b00010100)
(define-fun |weak$$choice0#2$wclk$8| () (_ BitVec 8) #b10101111)
(define-fun |memory_model::choice_ws-ext_0_15_1_19_F_231| () Bool true)
(define-fun |weak$$choice2#1$wclk$8| () (_ BitVec 8) #b00010101)
(define-fun |weak$$choice2#2$wclk$8| () (_ BitVec 8) #b10101111)
(define-fun |memory_model::choice_ws-ext_0_16_1_18_F_232| () Bool true)
(define-fun t1$39$spwnclk$8 () (_ BitVec 8) #b01001111)
(define-fun t1$44$spwnclk$8 () (_ BitVec 8) #b01011011)
(define-fun t1$49$spwnclk$8 () (_ BitVec 8) #b10000110)
(define-fun |main::1::t2522!0@1$wclk$8| () (_ BitVec 8) #b00000010)
(define-fun |main::1::t2523!0@1$wclk$8| () (_ BitVec 8) #b00000100)
(define-fun |__CPROVER_dead_object#1$wclk$8| () (_ BitVec 8) #b00000101)
(define-fun |__CPROVER_deallocated#1$wclk$8| () (_ BitVec 8) #b00000110)
(define-fun |__CPROVER_malloc_is_new_array#1$wclk$8| () (_ BitVec 8) #b00000111)
(define-fun |__CPROVER_malloc_object#1$wclk$8| () (_ BitVec 8) #b00001000)
(define-fun |__CPROVER_malloc_size#1$wclk$8| () (_ BitVec 8) #b00001001)
(define-fun |__CPROVER_memory_leak#1$wclk$8| () (_ BitVec 8) #b00001010)
(define-fun |__CPROVER_next_thread_id#1$wclk$8| () (_ BitVec 8) #b00001011)
(define-fun |__CPROVER_pipe_count#1$wclk$8| () (_ BitVec 8) #b00001101)
(define-fun |main$tmp_guard0#1$wclk$8| () (_ BitVec 8) #b00010001)
(define-fun |main$tmp_guard1#1$wclk$8| () (_ BitVec 8) #b00010011)
(define-fun |x$read_delayed#1$wclk$8| () (_ BitVec 8) #b00111111)
(define-fun |x$read_delayed_var#1$wclk$8| () (_ BitVec 8) #b01000000)
(define-fun |main::1::t2521!0@1#1$wclk$8| () (_ BitVec 8) #b01001100)
(define-fun |__CPROVER_next_thread_id#2$wclk$8| () (_ BitVec 8) #b01001101)
(define-fun |main::1::t2521!0@1#2$wclk$8| () (_ BitVec 8) #b01001110)
(define-fun |main::1::t2522!0@1#1$wclk$8| () (_ BitVec 8) #b01010000)
(define-fun |__CPROVER_next_thread_id#3$rclk$8| () (_ BitVec 8) #b01010001)
(define-fun |__CPROVER_next_thread_id#5$wclk$8| () (_ BitVec 8) #b01010001)
(define-fun |main::1::t2522!0@1#2$wclk$8| () (_ BitVec 8) #b01011010)
(define-fun |main::1::t2523!0@1#1$wclk$8| () (_ BitVec 8) #b01110010)
(define-fun |__CPROVER_next_thread_id#6$rclk$8| () (_ BitVec 8) #b01110011)
(define-fun |__CPROVER_next_thread_id#8$wclk$8| () (_ BitVec 8) #b01110011)
(define-fun |main::1::t2523!0@1#2$wclk$8| () (_ BitVec 8) #b10000100)
(define-fun |main$tmp_guard0#2$wclk$8| () (_ BitVec 8) #b10111101)
(define-fun |main$tmp_guard0#3$rclk$8| () (_ BitVec 8) #b11110110)
(define-fun |x$r_buff0_thd0#2$rclk$8| () (_ BitVec 8) #b11111100)
(define-fun |main$tmp_guard1#3$rclk$8| () (_ BitVec 8) #b11111101)
(define-fun |main$tmp_guard1#4$wclk$8| () (_ BitVec 8) #b11111101)
(define-fun |main$tmp_guard1#5$rclk$8| () (_ BitVec 8) #b11111110)
(define-fun |main$tmp_guard1#6$rclk$8| () (_ BitVec 8) #b11111111)
)

real	0m0.274s
user	0m0.270s
sys	0m0.003s
State: AC Run_time: 0.27615833282470703